c File: flat50_3_0.col
c
c SOURCE: Joseph Culberson (joe@cs.ualberta.ca)
c DESCRIPTION: Quasi-random coloring problem
c              generated with flatness = 0
c                             probability = 0.139
c                             known coloring = 3
c                             random seed = 1452
c              Creation Date:  Tue Jun  9 12:09:42 1998
c Maximum degree = 8 Minimum degree = 1
c p edge 50 115
c cnf created by edge2cnf
p cnf 150 545
-1 -2 0
-1 -3 0
-2 -3 0
1 2 3 0
-4 -5 0
-4 -6 0
-5 -6 0
4 5 6 0
-7 -8 0
-7 -9 0
-8 -9 0
7 8 9 0
-10 -11 0
-10 -12 0
-11 -12 0
10 11 12 0
-13 -14 0
-13 -15 0
-14 -15 0
13 14 15 0
-16 -17 0
-16 -18 0
-17 -18 0
16 17 18 0
-19 -20 0
-19 -21 0
-20 -21 0
19 20 21 0
-22 -23 0
-22 -24 0
-23 -24 0
22 23 24 0
-25 -26 0
-25 -27 0
-26 -27 0
25 26 27 0
-28 -29 0
-28 -30 0
-29 -30 0
28 29 30 0
-31 -32 0
-31 -33 0
-32 -33 0
31 32 33 0
-34 -35 0
-34 -36 0
-35 -36 0
34 35 36 0
-37 -38 0
-37 -39 0
-38 -39 0
37 38 39 0
-40 -41 0
-40 -42 0
-41 -42 0
40 41 42 0
-43 -44 0
-43 -45 0
-44 -45 0
43 44 45 0
-46 -47 0
-46 -48 0
-47 -48 0
46 47 48 0
-49 -50 0
-49 -51 0
-50 -51 0
49 50 51 0
-52 -53 0
-52 -54 0
-53 -54 0
52 53 54 0
-55 -56 0
-55 -57 0
-56 -57 0
55 56 57 0
-58 -59 0
-58 -60 0
-59 -60 0
58 59 60 0
-61 -62 0
-61 -63 0
-62 -63 0
61 62 63 0
-64 -65 0
-64 -66 0
-65 -66 0
64 65 66 0
-67 -68 0
-67 -69 0
-68 -69 0
67 68 69 0
-70 -71 0
-70 -72 0
-71 -72 0
70 71 72 0
-73 -74 0
-73 -75 0
-74 -75 0
73 74 75 0
-76 -77 0
-76 -78 0
-77 -78 0
76 77 78 0
-79 -80 0
-79 -81 0
-80 -81 0
79 80 81 0
-82 -83 0
-82 -84 0
-83 -84 0
82 83 84 0
-85 -86 0
-85 -87 0
-86 -87 0
85 86 87 0
-88 -89 0
-88 -90 0
-89 -90 0
88 89 90 0
-91 -92 0
-91 -93 0
-92 -93 0
91 92 93 0
-94 -95 0
-94 -96 0
-95 -96 0
94 95 96 0
-97 -98 0
-97 -99 0
-98 -99 0
97 98 99 0
-100 -101 0
-100 -102 0
-101 -102 0
100 101 102 0
-103 -104 0
-103 -105 0
-104 -105 0
103 104 105 0
-106 -107 0
-106 -108 0
-107 -108 0
106 107 108 0
-109 -110 0
-109 -111 0
-110 -111 0
109 110 111 0
-112 -113 0
-112 -114 0
-113 -114 0
112 113 114 0
-115 -116 0
-115 -117 0
-116 -117 0
115 116 117 0
-118 -119 0
-118 -120 0
-119 -120 0
118 119 120 0
-121 -122 0
-121 -123 0
-122 -123 0
121 122 123 0
-124 -125 0
-124 -126 0
-125 -126 0
124 125 126 0
-127 -128 0
-127 -129 0
-128 -129 0
127 128 129 0
-130 -131 0
-130 -132 0
-131 -132 0
130 131 132 0
-133 -134 0
-133 -135 0
-134 -135 0
133 134 135 0
-136 -137 0
-136 -138 0
-137 -138 0
136 137 138 0
-139 -140 0
-139 -141 0
-140 -141 0
139 140 141 0
-142 -143 0
-142 -144 0
-143 -144 0
142 143 144 0
-145 -146 0
-145 -147 0
-146 -147 0
145 146 147 0
-148 -149 0
-148 -150 0
-149 -150 0
148 149 150 0
-61 -1 0
-62 -2 0
-63 -3 0
-100 -1 0
-101 -2 0
-102 -3 0
-124 -1 0
-125 -2 0
-126 -3 0
-145 -1 0
-146 -2 0
-147 -3 0
-58 -4 0
-59 -5 0
-60 -6 0
-97 -4 0
-98 -5 0
-99 -6 0
-100 -4 0
-101 -5 0
-102 -6 0
-103 -4 0
-104 -5 0
-105 -6 0
-109 -4 0
-110 -5 0
-111 -6 0
-112 -4 0
-113 -5 0
-114 -6 0
-133 -4 0
-134 -5 0
-135 -6 0
-85 -7 0
-86 -8 0
-87 -9 0
-91 -7 0
-92 -8 0
-93 -9 0
-106 -7 0
-107 -8 0
-108 -9 0
-127 -7 0
-128 -8 0
-129 -9 0
-130 -7 0
-131 -8 0
-132 -9 0
-136 -7 0
-137 -8 0
-138 -9 0
-94 -10 0
-95 -11 0
-96 -12 0
-91 -13 0
-92 -14 0
-93 -15 0
-112 -13 0
-113 -14 0
-114 -15 0
-73 -16 0
-74 -17 0
-75 -18 0
-79 -16 0
-80 -17 0
-81 -18 0
-106 -16 0
-107 -17 0
-108 -18 0
-109 -16 0
-110 -17 0
-111 -18 0
-124 -16 0
-125 -17 0
-126 -18 0
-67 -19 0
-68 -20 0
-69 -21 0
-133 -19 0
-134 -20 0
-135 -21 0
-136 -19 0
-137 -20 0
-138 -21 0
-55 -22 0
-56 -23 0
-57 -24 0
-103 -22 0
-104 -23 0
-105 -24 0
-52 -25 0
-53 -26 0
-54 -27 0
-61 -25 0
-62 -26 0
-63 -27 0
-64 -25 0
-65 -26 0
-66 -27 0
-100 -25 0
-101 -26 0
-102 -27 0
-112 -25 0
-113 -26 0
-114 -27 0
-115 -25 0
-116 -26 0
-117 -27 0
-142 -25 0
-143 -26 0
-144 -27 0
-73 -28 0
-74 -29 0
-75 -30 0
-85 -28 0
-86 -29 0
-87 -30 0
-88 -28 0
-89 -29 0
-90 -30 0
-52 -31 0
-53 -32 0
-54 -33 0
-61 -31 0
-62 -32 0
-63 -33 0
-70 -31 0
-71 -32 0
-72 -33 0
-55 -34 0
-56 -35 0
-57 -36 0
-73 -34 0
-74 -35 0
-75 -36 0
-88 -34 0
-89 -35 0
-90 -36 0
-91 -34 0
-92 -35 0
-93 -36 0
-103 -34 0
-104 -35 0
-105 -36 0
-109 -34 0
-110 -35 0
-111 -36 0
-124 -34 0
-125 -35 0
-126 -36 0
-64 -37 0
-65 -38 0
-66 -39 0
-67 -37 0
-68 -38 0
-69 -39 0
-118 -37 0
-119 -38 0
-120 -39 0
-133 -37 0
-134 -38 0
-135 -39 0
-148 -37 0
-149 -38 0
-150 -39 0
-82 -40 0
-83 -41 0
-84 -42 0
-94 -40 0
-95 -41 0
-96 -42 0
-97 -40 0
-98 -41 0
-99 -42 0
-109 -40 0
-110 -41 0
-111 -42 0
-139 -40 0
-140 -41 0
-141 -42 0
-67 -43 0
-68 -44 0
-69 -45 0
-82 -43 0
-83 -44 0
-84 -45 0
-94 -43 0
-95 -44 0
-96 -45 0
-106 -43 0
-107 -44 0
-108 -45 0
-139 -43 0
-140 -44 0
-141 -45 0
-142 -43 0
-143 -44 0
-144 -45 0
-55 -46 0
-56 -47 0
-57 -48 0
-73 -46 0
-74 -47 0
-75 -48 0
-97 -46 0
-98 -47 0
-99 -48 0
-115 -46 0
-116 -47 0
-117 -48 0
-121 -46 0
-122 -47 0
-123 -48 0
-130 -46 0
-131 -47 0
-132 -48 0
-139 -46 0
-140 -47 0
-141 -48 0
-67 -49 0
-68 -50 0
-69 -51 0
-100 -49 0
-101 -50 0
-102 -51 0
-112 -49 0
-113 -50 0
-114 -51 0
-124 -49 0
-125 -50 0
-126 -51 0
-121 -52 0
-122 -53 0
-123 -54 0
-118 -55 0
-119 -56 0
-120 -57 0
-127 -55 0
-128 -56 0
-129 -57 0
-127 -58 0
-128 -59 0
-129 -60 0
-136 -58 0
-137 -59 0
-138 -60 0
-115 -61 0
-116 -62 0
-117 -63 0
-109 -64 0
-110 -65 0
-111 -66 0
-130 -64 0
-131 -65 0
-132 -66 0
-139 -64 0
-140 -65 0
-141 -66 0
-109 -67 0
-110 -68 0
-111 -69 0
-112 -67 0
-113 -68 0
-114 -69 0
-118 -67 0
-119 -68 0
-120 -69 0
-142 -67 0
-143 -68 0
-144 -69 0
-106 -70 0
-107 -71 0
-108 -72 0
-118 -70 0
-119 -71 0
-120 -72 0
-109 -73 0
-110 -74 0
-111 -75 0
-127 -73 0
-128 -74 0
-129 -75 0
-112 -76 0
-113 -77 0
-114 -78 0
-121 -76 0
-122 -77 0
-123 -78 0
-139 -76 0
-140 -77 0
-141 -78 0
-133 -79 0
-134 -80 0
-135 -81 0
-136 -79 0
-137 -80 0
-138 -81 0
-142 -79 0
-143 -80 0
-144 -81 0
-121 -82 0
-122 -83 0
-123 -84 0
-106 -85 0
-107 -86 0
-108 -87 0
-112 -85 0
-113 -86 0
-114 -87 0
-133 -85 0
-134 -86 0
-135 -87 0
-139 -85 0
-140 -86 0
-141 -87 0
-121 -88 0
-122 -89 0
-123 -90 0
-127 -88 0
-128 -89 0
-129 -90 0
-130 -88 0
-131 -89 0
-132 -90 0
-133 -88 0
-134 -89 0
-135 -90 0
-118 -94 0
-119 -95 0
-120 -96 0
-130 -94 0
-131 -95 0
-132 -96 0
-133 -94 0
-134 -95 0
-135 -96 0
-103 -97 0
-104 -98 0
-105 -99 0
-130 -97 0
-131 -98 0
-132 -99 0
-112 -100 0
-113 -101 0
-114 -102 0
